% seed = 0

mint = 28;
% maxt = 124;

nActs = 62;
dur = [0,1,1,2,2,3,3,3,2,3,1,1,1,3,1,3,3,2,2,2,1,1,3,3,1,2,2,2,2,2,3,3,3,1,2,1,1,3,1,1,3,3,2,1,1,2,3,2,2,2,1,2,2,3,4,2,2,2,4,1,3,0];

nSkills = 15;
sreq = [| 0,0,0,0,0,0,0,0,0,0,0,0,0,0,0,
	| 0,1,0,0,0,0,0,0,0,0,0,0,0,0,0,
	| 0,0,0,0,1,1,0,0,0,0,1,0,0,0,0,
	| 0,0,0,0,0,0,0,0,0,0,0,2,0,0,1,
	| 0,0,0,0,0,0,0,0,0,1,0,0,0,0,0,
	| 0,0,0,0,1,0,0,0,0,0,0,0,0,0,0,
	| 0,0,1,0,1,0,0,0,0,0,0,0,0,0,0,
	| 0,0,1,0,0,0,0,0,0,0,0,2,0,0,0,
	| 0,0,0,0,0,0,0,0,0,1,0,1,0,0,1,
	| 0,0,0,0,0,0,0,0,0,0,0,0,0,0,1,
	| 0,0,0,0,0,0,0,0,0,0,2,0,0,0,0,
	| 0,0,0,0,1,0,0,0,0,0,0,0,0,0,0,
	| 0,0,0,1,0,0,0,0,0,0,0,1,0,0,0,
	| 1,0,0,1,0,0,0,0,0,0,0,0,1,0,0,
	| 0,0,0,0,0,0,1,0,0,0,0,0,0,0,0,
	| 0,0,0,0,0,0,0,0,0,1,0,0,0,0,0,
	| 0,0,0,0,0,0,0,0,1,1,0,0,0,0,0,
	| 0,0,0,0,0,0,0,0,0,0,0,1,1,0,0,
	| 0,0,0,0,0,0,0,0,0,0,0,1,0,0,1,
	| 1,0,0,0,1,0,0,0,0,0,1,0,0,0,0,
	| 0,0,0,0,1,0,0,1,0,0,0,0,0,0,0,
	| 0,0,0,0,0,0,0,0,0,0,2,0,0,0,0,
	| 0,0,1,1,0,0,0,0,0,0,1,0,0,0,0,
	| 0,1,0,0,0,0,0,1,0,0,0,0,0,0,0,
	| 0,0,0,0,0,0,0,0,0,0,0,1,0,0,0,
	| 1,0,0,0,0,1,0,0,0,0,0,1,0,0,0,
	| 0,0,0,0,0,0,0,0,0,0,1,2,0,0,0,
	| 0,0,0,0,1,0,0,0,0,0,0,1,0,0,0,
	| 0,0,0,0,0,0,0,0,0,0,0,1,0,0,0,
	| 0,0,0,0,0,0,0,0,0,0,0,1,0,0,0,
	| 0,0,0,0,0,0,0,0,0,0,0,1,0,0,1,
	| 0,0,0,0,0,0,0,0,0,0,0,1,0,0,0,
	| 0,0,0,0,0,0,0,0,0,0,0,1,0,1,1,
	| 0,0,0,0,1,0,0,0,0,0,0,1,0,0,0,
	| 0,0,0,0,0,0,1,0,0,0,0,1,0,0,1,
	| 0,0,0,0,0,0,0,0,0,0,1,0,0,0,0,
	| 0,1,0,0,0,0,0,0,0,0,0,0,0,1,1,
	| 0,0,0,0,2,0,0,0,0,0,0,1,0,0,0,
	| 0,0,0,1,0,0,0,0,0,0,0,1,0,0,0,
	| 0,0,0,0,0,0,0,0,0,1,0,0,0,0,0,
	| 0,0,0,1,0,0,0,0,0,0,0,0,0,0,0,
	| 0,0,0,0,0,1,1,0,0,0,0,0,0,0,1,
	| 1,0,0,0,0,1,0,0,0,0,0,0,0,0,0,
	| 1,0,0,0,1,0,0,0,0,0,0,0,0,0,0,
	| 0,0,0,0,0,1,0,0,0,0,0,2,0,0,0,
	| 0,0,1,0,0,0,0,0,0,0,0,0,0,0,0,
	| 0,0,0,0,0,1,0,0,0,0,0,0,0,0,0,
	| 0,0,0,0,0,1,0,0,0,0,1,0,0,0,0,
	| 0,0,0,0,0,1,0,0,0,0,0,1,0,0,1,
	| 0,0,0,0,0,1,0,0,0,0,0,1,0,1,0,
	| 0,0,0,1,0,0,0,0,0,0,0,0,0,0,0,
	| 0,0,0,1,0,1,0,0,0,0,0,1,0,0,0,
	| 0,0,0,0,1,0,0,0,0,0,0,1,0,0,0,
	| 0,0,0,0,0,0,0,0,0,0,0,0,0,0,1,
	| 0,0,0,0,0,0,0,0,0,0,0,1,0,0,0,
	| 0,1,0,0,1,0,0,0,0,0,0,1,0,0,0,
	| 0,0,0,0,0,0,0,1,0,0,0,1,0,0,0,
	| 0,0,0,0,0,0,0,0,0,0,0,0,0,0,1,
	| 0,0,0,0,0,1,0,0,0,0,0,0,0,0,0,
	| 0,0,0,0,0,1,0,0,0,0,0,0,0,0,0,
	| 0,0,0,1,0,0,0,0,0,0,0,0,0,0,0,
	| 0,0,0,0,0,0,0,0,0,0,0,0,0,0,0, |];

% SumOfsreq = 116;

nResources = 11;
mastery = [| false,false,false,false,false,false,false,false,false,true,true,true,false,false,false,
	| false,false,false,false,false,true,false,false,false,true,true,true,false,false,false,
	| false,false,false,false,false,false,false,false,false,false,false,true,false,false,false,
	| false,false,false,true,true,true,false,false,false,false,false,false,false,false,false,
	| false,false,false,false,false,false,false,false,false,false,true,true,false,false,false,
	| false,true,true,false,true,true,false,false,false,false,false,false,true,true,true,
	| true,true,true,false,false,false,false,false,false,false,false,false,false,false,false,
	| false,false,false,false,true,true,true,true,true,false,false,false,false,false,false,
	| false,false,false,false,false,false,false,false,false,false,false,false,false,false,true,
	| false,false,false,true,true,true,false,false,false,false,false,true,false,false,false,
	| false,false,false,false,false,false,true,true,true,false,false,false,false,false,false, |];

nPrecs = 112;
pred = [1,1,1,2,2,2,3,3,3,4,4,4,5,5,5,6,6,6,7,7,8,9,9,9,10,10,10,11,12,12,13,14,15,15,15,16,16,16,17,17,18,19,19,19,20,21,21,21,22,22,23,24,25,25,25,26,26,26,27,27,28,28,29,29,29,30,30,31,32,33,33,34,35,36,37,37,37,38,39,39,40,40,41,41,41,42,42,43,43,44,44,45,46,47,48,48,49,50,51,51,52,53,54,55,55,56,56,57,58,59,60,61];
succ = [2,3,4,19,14,8,13,5,39,10,7,16,18,6,47,9,20,21,27,22,12,11,12,19,36,29,23,26,29,15,36,56,25,27,46,17,49,57,45,30,35,50,43,32,44,25,26,28,37,24,47,28,41,36,31,33,35,52,41,48,42,51,43,38,54,34,40,35,46,53,46,58,42,50,53,38,55,52,49,44,43,47,50,54,55,57,44,56,48,53,45,59,48,58,60,61,51,51,59,52,56,54,61,57,59,58,61,60,60,62,62,62];

nUnrels = 1059;
unpred = [2,2,2,2,2,2,2,2,2,2,2,2,2,2,2,2,2,2,2,2,2,2,2,2,2,2,2,3,3,3,3,3,3,3,3,3,3,3,3,3,3,4,4,4,4,4,4,4,4,4,4,4,4,4,4,4,4,4,4,4,4,4,5,5,5,5,5,5,5,5,5,5,5,5,5,5,5,5,6,6,6,6,6,6,6,6,6,6,6,6,6,6,6,6,6,6,7,7,7,7,7,7,7,7,7,7,7,7,7,7,7,7,7,7,7,7,7,7,7,7,7,7,7,7,7,7,7,8,8,8,8,8,8,8,8,8,8,8,8,8,8,8,8,8,8,8,8,8,8,8,8,8,9,9,9,9,9,9,9,9,9,9,9,9,9,9,9,9,9,9,9,10,10,10,10,10,10,10,10,10,10,10,10,10,10,10,10,10,10,10,10,10,10,10,10,10,10,10,10,10,10,10,10,10,10,10,11,11,11,11,11,11,11,11,11,11,11,11,11,11,11,11,11,11,11,11,11,11,11,11,11,11,11,11,11,11,11,11,11,12,12,12,12,12,12,12,12,12,12,12,12,12,12,12,12,12,12,12,12,12,12,13,13,13,13,13,13,13,13,13,13,13,13,13,13,13,13,13,13,13,13,13,13,13,13,13,13,13,13,13,13,13,13,13,13,13,13,13,13,13,14,14,14,14,14,14,14,14,14,14,14,14,14,14,14,14,14,14,14,14,14,14,14,14,14,14,14,14,14,14,14,14,14,14,14,14,14,14,14,14,14,14,14,15,15,15,15,15,15,15,15,15,15,15,15,15,15,15,15,15,15,15,15,15,15,15,16,16,16,16,16,16,16,16,16,16,16,16,16,16,16,16,16,16,16,16,16,16,16,16,16,16,16,16,17,17,17,17,17,17,17,17,17,17,17,17,17,17,17,17,17,17,17,17,17,17,17,17,17,17,17,17,17,17,17,17,18,18,18,18,18,18,18,18,18,18,18,18,18,18,18,18,18,18,18,18,18,18,18,18,18,18,18,18,18,18,18,18,18,19,19,19,19,19,19,19,19,19,19,19,19,19,19,19,19,19,19,19,19,19,19,19,19,19,19,19,19,19,19,20,20,20,20,20,20,20,20,20,20,20,20,20,20,20,20,20,20,20,20,20,20,20,20,20,20,20,20,20,20,20,20,20,20,20,21,21,21,21,21,21,21,21,21,21,21,21,21,21,21,22,22,22,22,22,22,22,22,22,22,22,22,22,22,22,22,22,22,22,22,22,23,23,23,23,23,23,23,23,23,23,23,23,23,23,23,23,23,23,23,23,23,23,23,23,23,23,23,23,23,23,23,23,23,23,23,24,24,24,24,24,24,24,24,24,24,24,24,24,24,24,24,24,24,24,24,24,24,24,25,25,25,25,25,25,25,25,25,25,25,25,25,25,25,25,25,26,26,26,26,26,26,26,26,26,26,26,26,26,26,26,26,26,26,26,27,27,27,27,27,27,27,27,27,27,27,27,27,27,27,27,27,27,27,27,27,28,28,28,28,28,28,28,28,28,28,28,28,28,28,28,28,28,28,28,28,29,29,29,29,29,29,29,29,29,29,29,29,29,29,29,29,29,29,29,29,29,29,29,30,30,30,30,30,30,30,30,30,30,30,30,30,30,30,30,30,30,30,30,30,30,31,31,31,31,31,31,31,31,31,31,31,31,31,31,31,31,31,31,31,31,32,32,32,32,32,32,32,32,32,32,32,32,32,32,32,32,32,32,32,32,32,32,32,32,32,33,33,33,33,33,33,33,33,33,33,33,33,33,33,33,33,33,33,33,33,33,33,34,34,34,34,34,34,34,34,34,34,34,34,34,34,34,34,34,34,34,34,34,34,34,34,34,35,35,35,35,35,35,35,35,35,35,35,35,35,35,35,35,35,36,36,36,36,36,36,36,36,36,36,36,36,36,36,36,36,36,37,37,37,37,37,37,37,37,37,37,37,37,37,38,38,38,38,38,38,38,38,38,38,38,38,38,38,38,38,38,38,39,39,39,39,39,39,39,39,39,39,40,40,40,40,40,40,40,40,40,40,40,40,40,40,41,41,41,41,41,41,41,41,41,42,42,42,42,42,42,42,42,42,42,42,43,43,43,43,43,43,43,43,43,43,43,43,43,44,44,44,44,44,44,44,44,44,44,44,44,45,45,45,45,45,45,45,45,45,45,45,45,45,45,45,46,46,46,46,46,46,46,46,46,46,46,46,47,47,47,47,47,47,47,47,47,47,47,47,48,48,48,48,48,48,48,48,48,48,48,49,49,49,49,49,50,50,50,50,51,51,51,51,52,52,52,52,52,53,53,53,53,53,53,54,54,54,54,54,54,55,55,55,56,56,57,57,57,58,58,59,59,60];
unsucc = [3,4,5,6,7,9,10,11,13,16,17,18,20,21,22,23,24,26,28,30,33,34,37,39,40,47,49,4,7,8,10,14,16,17,22,23,24,30,34,37,40,5,6,8,9,11,12,13,14,15,18,19,20,21,25,26,31,32,33,35,39,46,7,8,10,13,14,16,17,22,23,24,30,34,37,39,40,49,7,8,10,13,14,16,17,18,22,23,24,30,34,37,39,40,47,49,8,9,10,11,12,13,14,15,16,17,18,19,20,21,23,25,26,29,30,31,32,33,34,35,36,39,40,43,46,47,49,9,10,11,13,14,16,17,18,19,20,21,22,23,24,26,28,30,32,33,34,37,39,40,47,49,10,13,14,16,17,18,20,21,22,23,24,28,30,34,37,39,40,47,49,11,12,13,14,15,16,17,18,19,20,21,22,24,25,26,27,28,30,31,32,33,34,35,37,39,40,41,42,44,45,46,49,53,55,57,12,13,14,15,16,17,18,19,20,21,22,23,24,25,27,28,29,30,31,32,34,36,37,38,39,40,41,43,47,49,50,51,55,13,14,16,17,18,19,20,21,22,23,24,26,28,30,32,33,34,37,39,40,47,49,14,15,16,17,18,19,20,21,22,23,24,25,26,27,28,29,30,31,32,33,34,35,37,38,39,40,41,42,43,44,45,46,47,48,49,53,54,55,57,15,16,17,18,19,20,21,22,23,24,25,26,27,28,29,30,31,32,33,34,35,36,37,38,39,40,41,42,43,44,45,46,47,48,49,50,51,52,53,54,55,57,59,16,17,18,19,20,21,22,23,24,26,28,29,30,32,33,34,37,38,39,40,43,47,49,18,19,20,21,22,23,24,25,26,27,28,29,31,32,33,35,36,37,38,39,41,42,44,46,50,53,54,55,18,19,20,21,22,23,24,25,26,27,28,29,31,32,33,35,36,37,38,39,41,42,44,46,49,50,51,52,53,54,55,57,19,20,21,22,23,24,25,26,27,28,29,30,31,32,33,34,36,37,38,39,40,41,43,46,47,48,49,50,51,52,55,56,58,20,21,22,23,24,25,26,27,28,29,30,31,33,34,35,36,37,38,39,40,41,42,44,45,47,49,53,54,55,57,21,22,23,24,25,26,27,28,29,30,31,32,33,34,35,36,37,38,39,40,41,42,43,46,47,48,49,50,51,52,55,56,57,58,60,22,23,24,27,29,30,32,34,37,38,39,40,43,47,49,23,25,26,27,29,30,31,32,33,34,35,36,39,40,41,43,46,47,48,49,50,24,25,26,27,28,29,30,31,32,33,34,35,36,37,38,39,40,41,42,43,44,45,46,48,49,50,51,52,53,54,55,56,57,59,61,25,26,27,29,30,31,32,33,34,35,36,37,38,39,40,41,43,46,47,48,49,50,55,26,27,28,29,30,32,33,34,37,38,39,40,43,46,47,48,49,27,28,29,30,31,32,34,36,37,38,39,40,41,43,47,49,50,51,55,28,29,30,31,32,33,34,35,36,37,38,39,40,42,43,44,45,46,47,49,53,29,30,31,32,33,34,35,36,37,38,39,40,41,43,46,47,48,49,50,55,30,31,32,33,34,35,36,37,39,40,41,42,44,45,46,47,49,50,51,53,55,57,59,31,32,33,35,36,37,38,39,41,42,44,45,46,49,50,51,52,53,54,55,57,59,32,33,34,36,37,38,39,40,41,43,46,47,48,49,50,51,52,55,56,58,33,34,35,36,37,38,39,40,41,42,43,44,45,47,49,50,51,52,53,54,55,56,57,58,59,34,35,36,37,38,39,40,41,42,43,44,45,47,49,50,51,52,55,56,57,58,59,35,36,37,38,39,40,41,42,43,44,45,46,47,48,49,50,51,52,53,54,55,56,57,59,61,36,37,38,39,40,41,43,46,47,48,49,50,51,52,55,56,58,37,38,39,40,41,42,43,44,45,46,47,48,49,53,54,55,57,39,40,41,42,43,44,45,46,47,48,49,50,51,39,40,41,42,43,44,45,46,47,48,49,50,51,53,54,55,57,59,40,41,42,43,46,47,48,50,55,57,41,42,44,45,46,49,50,51,52,53,54,55,57,59,42,43,44,45,46,47,48,49,53,43,46,47,48,49,50,51,52,55,56,58,44,45,46,47,49,50,51,52,53,54,55,57,59,46,47,48,49,50,51,52,55,56,57,58,60,46,47,48,49,50,51,52,53,54,55,56,57,58,60,61,47,49,50,51,52,53,54,55,56,57,58,59,48,49,50,51,52,53,54,55,56,57,59,61,49,50,51,52,53,54,55,56,57,58,59,50,53,54,55,57,53,54,55,57,53,54,55,57,53,54,55,57,59,55,56,57,58,59,60,55,56,57,58,59,60,56,58,61,57,59,58,59,61,59,61,60,61,61];

USEFUL_RES = [{},
	{6,7},
	{1,2,4,5,6,8,10},
	{1,2,3,5,6,9,10},
	{1,2},
	{4,6,8,10},
	{4,6,7,8,10},
	{1,2,3,5,6,7,10},
	{1,2,3,5,6,9,10},
	{6,9},
	{1,2,5},
	{4,6,8,10},
	{1,2,3,4,5,10},
	{4,6,7,10},
	{8,11},
	{1,2},
	{1,2,8,11},
	{1,2,3,5,6,10},
	{1,2,3,5,6,9,10},
	{1,2,4,5,6,7,8,10},
	{4,6,8,10,11},
	{1,2,5},
	{1,2,4,5,6,7,10},
	{6,7,8,11},
	{1,2,3,5,10},
	{1,2,3,4,5,6,7,8,10},
	{1,2,3,5,10},
	{1,2,3,4,5,6,8,10},
	{1,2,3,5,10},
	{1,2,3,5,10},
	{1,2,3,5,6,9,10},
	{1,2,3,5,10},
	{1,2,3,5,6,9,10},
	{1,2,3,4,5,6,8,10},
	{1,2,3,5,6,8,9,10,11},
	{1,2,5},
	{6,7,9},
	{1,2,3,4,5,6,8,10},
	{1,2,3,4,5,10},
	{1,2},
	{4,10},
	{2,4,6,8,9,10,11},
	{2,4,6,7,8,10},
	{4,6,7,8,10},
	{1,2,3,4,5,6,8,10},
	{6,7},
	{2,4,6,8,10},
	{1,2,4,5,6,8,10},
	{1,2,3,4,5,6,8,9,10},
	{1,2,3,4,5,6,8,10},
	{4,10},
	{1,2,3,4,5,6,8,10},
	{1,2,3,4,5,6,8,10},
	{6,9},
	{1,2,3,5,10},
	{1,2,3,4,5,6,7,8,10},
	{1,2,3,5,8,10,11},
	{6,9},
	{2,4,6,8,10},
	{2,4,6,8,10},
	{4,10},
	{}];

POTENTIAL_ACT = [{3,4,5,8,9,11,13,16,17,18,19,20,22,23,25,26,27,28,29,30,31,32,33,34,35,36,38,39,40,45,48,49,50,52,53,55,56,57},
	{3,4,5,8,9,11,13,16,17,18,19,20,22,23,25,26,27,28,29,30,31,32,33,34,35,36,38,39,40,42,43,45,47,48,49,50,52,53,55,56,57,59,60},
	{4,8,9,13,18,19,25,26,27,28,29,30,31,32,33,34,35,38,39,45,49,50,52,53,55,56,57},
	{3,6,7,12,13,14,20,21,23,26,28,34,38,39,41,42,43,44,45,47,48,49,50,51,52,53,56,59,60,61},
	{3,4,8,9,11,13,18,19,20,22,23,25,26,27,28,29,30,31,32,33,34,35,36,38,39,45,48,49,50,52,53,55,56,57},
	{2,3,4,6,7,8,9,10,12,14,18,19,20,21,23,24,26,28,31,33,34,35,37,38,42,43,44,45,46,47,48,49,50,52,53,54,56,58,59,60},
	{2,7,8,14,20,23,24,26,37,43,44,46,56},
	{3,6,7,12,15,17,20,21,24,26,28,34,35,38,42,43,44,45,47,48,49,50,52,53,56,57,59,60},
	{4,9,10,19,31,33,35,37,42,49,54,58},
	{3,4,6,7,8,9,12,13,14,18,19,20,21,23,25,26,27,28,29,30,31,32,33,34,35,38,39,41,42,43,44,45,47,48,49,50,51,52,53,55,56,57,59,60,61},
	{15,17,21,24,35,42,57}];
